data;

set BUSES := a1 a2 a3 a4 a5 a6 a7 a8;
set FRANJAS := s1 s2 s3 s4;
set TALLERES := t1 t2;

param c : a1 a2 a3 a4 a5 a6 a7 a8 :=
a1 0.0 2.0 3.0 4.0 8.0 7.0 6.0 5.0 
a2 2.0 0.0 1.0 3.0 7.0 8.0 5.0 6.0 
a3 3.0 1.0 0.0 2.0 6.0 7.0 8.0 5.0 
a4 4.0 3.0 2.0 0.0 5.0 6.0 7.0 8.0 
a5 8.0 7.0 6.0 5.0 0.0 2.0 3.0 4.0 
a6 7.0 8.0 7.0 6.0 2.0 0.0 1.0 3.0 
a7 6.0 5.0 8.0 7.0 3.0 1.0 0.0 2.0 
a8 5.0 6.0 5.0 8.0 4.0 3.0 2.0 0.0 
;

param o : t1 t2 :=
s1 1 1 
s2 1 1 
s3 1 0 
s4 0 1 
;

end;
